nNurses = 124;
nHours = 32;
minHours = 7;
maxHours = 12;
maxConsec = 12;
maxPresence = 14;
demand = [27, 27, 26, 26, 21, 23, 22, 21, 18, 18, 20, 20, 15, 20, 18, 20, 21, 18, 14, 11, 7, 11, 8, 6, 6, 11, 7, 6, 11, 13, 18, 17];
